Route #1: 26 12 17 75 68 30 4 27 52
Route #2: 34 46 8 19 54 13 57 15 29 45
Route #3: 5 37 20 70 60 71 36 69 21 47 48
Route #4: 74 28 61 22 64 42 41 43 1 73 62
Route #5: 51 16 49 24 56 23 63 33 2 6
Route #6: 3 44 32 50 18 55 25 9 40
Route #7: 39 72 58 10 31 66 65 38
Route #8: 7 53 11 59 14 35 67
Cost 796